%chk=mol.chk
#P freq geom=allcheck external='./xtb.sh'



