%oldchk=mol.chk
#P IRC(maxpoints=20,calcfc) geom=allcheck external='./xtb.sh'



