%chk=mol.chk
#P opt(ts,calcfc,noeigen,nomicro) external='./xtb.sh'

Title Card Required

0 1
 C                  1.42727528   -0.77368233   -0.12108053
 C                  0.17533028   -0.03492333    0.37913847
 C                  1.10354047    0.23270345   -1.15600028
 H                  2.33850006   -0.58536355    0.43853833
 H                  1.27941255   -1.80116895   -0.43696853
 H                 -0.00123972   -0.03545733    1.45700247
 H                  0.66175526   -0.10924879   -2.08620578
 H                  1.12975687    0.98085615   -0.24387078
 C                 -0.83475929   -0.13074712   -0.67483420
 O                 -2.03262007   -0.16170299   -0.08074070
 H                 -2.70050528   -0.22478922   -0.78430819

